(set-logic HORN)
(set-info :source |
  Benchmark: ./benchmarks/ocaml/safety/tacas2015//repeat-e.ml
  Generated by Refinement Caml
|)
(set-info :status unknown)
(declare-fun |$P0| (Int) Bool)
(declare-fun |$P4| (Int Int) Bool)
(declare-fun |$P5| (Int Int Int) Bool)
(declare-fun |$P3| (Int Int) Bool)
(declare-fun |$P1| (Int) Bool)
(declare-fun |$P2| (Int Int) Bool)
(declare-fun |$P6| (Int Int Int Int) Bool)
(assert (forall ((x1 Int)(x0 Int)) (=> (and (|$P0| x1) (= x0 (+ 1 x1))) (|$P2| x1 x0))))
(assert (forall ((x1 Int)(x2 Int)(x0 Int)(x3 Int)) (=> (and (|$P4| x1 x2) (and (|$P5| x1 x2 x0) (and (|$P5| x1 x2 x3) (and (= x2 0) (= x3 x0))))) (|$P6| x1 x2 x0 x3))))
(assert (forall ((x4 Int)(x2 Int)(x0 Int)(x1 Int)(x3 Int)) (=> (and (|$P4| x1 x2) (and (|$P5| x1 x2 x3) (and (|$P1| x4) (and (or (< x2 0) (> x2 0)) (= x2 (+ 1 x0)))))) (|$P1| x4))))
(assert (forall ((x4 Int)(x5 Int)(x2 Int)(x0 Int)(x1 Int)(x3 Int)) (=> (and (|$P4| x1 x2) (and (|$P5| x1 x2 x3) (and (|$P1| x4) (and (|$P3| x4 x5) (and (or (< x2 0) (> x2 0)) (= x2 (+ 1 x0))))))) (|$P3| x4 x5))))
(assert (forall ((x1 Int)(x0 Int)(x2 Int)(x3 Int)) (=> (and (|$P4| x1 x2) (and (|$P5| x1 x2 x3) (and (or (< x2 0) (> x2 0)) (= x2 (+ 1 x0))))) (|$P4| x1 x0))))
(assert (forall ((x1 Int)(x0 Int)(x3 Int)(x2 Int)) (=> (and (|$P4| x1 x2) (and (|$P5| x1 x2 x3) (and (or (< x2 0) (> x2 0)) (= x2 (+ 1 x0))))) (|$P5| x1 x0 x3))))
(assert (forall ((x4 Int)(x0 Int)(x2 Int)(x1 Int)(x3 Int)) (=> (and (|$P4| x1 x0) (and (|$P5| x1 x0 x3) (and (|$P6| x1 x2 x3 x4) (and (or (< x0 0) (> x0 0)) (= x0 (+ 1 x2)))))) (|$P1| x4))))
(assert (forall ((x1 Int)(x0 Int)(x3 Int)(x5 Int)(x2 Int)(x4 Int)) (=> (and (|$P4| x1 x0) (and (|$P5| x1 x0 x3) (and (|$P6| x1 x2 x3 x4) (and (|$P3| x4 x5) (and (or (< x0 0) (> x0 0)) (= x0 (+ 1 x2))))))) (|$P6| x1 x0 x3 x5))))
(assert (forall ((x0 Int)) (=> (|$P1| x0) (|$P0| x0))))
(assert (forall ((x0 Int)(x1 Int)) (=> (and (|$P1| x0) (|$P2| x0 x1)) (|$P3| x0 x1))))
(assert (forall ((x0 Int)(x1 Int)) (|$P4| x0 x1)))
(assert (forall ((x0 Int)(x1 Int)(x2 Int)) (=> (= x2 0) (|$P5| x0 x1 x2))))
(assert (not (exists ((x2 Int)(x1 Int)(x0 Int)) (and (|$P6| x0 x1 0 x2) (<= x2 x1)))))
(check-sat)
